
Gurobi 9.0.1 (linux64) logging started Thu Apr 30 05:57:57 2020

Gurobi Optimizer version 9.0.1 build v9.0.1rc0 (linux64)
Optimize a model with 872 rows, 990 columns and 6936 nonzeros
Model fingerprint: 0x0ef1b13c
Variable types: 0 continuous, 990 integer (980 binary)
Coefficient statistics:
  Matrix range     [1e+00, 5e+00]
  Objective range  [3e+00, 1e+02]
  Bounds range     [1e+00, 1e+00]
  RHS range        [1e+00, 1e+00]

User MIP start produced solution with objective 501 (0.00s)
Loaded user MIP start with objective 501

Presolve removed 208 rows and 360 columns
Presolve time: 0.06s
Presolved: 664 rows, 630 columns, 4902 nonzeros
Variable types: 0 continuous, 630 integer (622 binary)

Root relaxation: objective 4.164788e+02, 609 iterations, 0.03 seconds

    Nodes    |    Current Node    |     Objective Bounds      |     Work
 Expl Unexpl |  Obj  Depth IntInf | Incumbent    BestBd   Gap | It/Node Time

     0     0  416.47880    0  269  501.00000  416.47880  16.9%     -    0s
     0     0  438.16900    0  284  501.00000  438.16900  12.5%     -    0s
     0     0  438.65992    0  291  501.00000  438.65992  12.4%     -    0s
     0     0  438.69687    0  301  501.00000  438.69687  12.4%     -    0s
     0     0  438.70193    0  299  501.00000  438.70193  12.4%     -    0s
     0     0  444.42104    0  294  501.00000  444.42104  11.3%     -    0s
     0     0  445.40920    0  299  501.00000  445.40920  11.1%     -    0s
     0     0  445.53267    0  304  501.00000  445.53267  11.1%     -    0s
     0     0  445.53815    0  302  501.00000  445.53815  11.1%     -    0s
     0     0  455.00400    0  299  501.00000  455.00400  9.18%     -    0s
     0     0  455.12474    0  299  501.00000  455.12474  9.16%     -    0s
     0     0  455.20311    0  295  501.00000  455.20311  9.14%     -    0s
     0     0  455.22389    0  295  501.00000  455.22389  9.14%     -    0s
     0     0  455.22921    0  298  501.00000  455.22921  9.14%     -    0s
     0     0  459.97864    0  301  501.00000  459.97864  8.19%     -    0s
     0     0  461.29260    0  302  501.00000  461.29260  7.93%     -    0s
     0     0  461.36991    0  303  501.00000  461.36991  7.91%     -    0s
     0     0  461.38045    0  305  501.00000  461.38045  7.91%     -    0s
     0     0  462.78242    0  305  501.00000  462.78242  7.63%     -    1s
     0     0  462.82298    0  303  501.00000  462.82298  7.62%     -    1s
     0     0  462.83143    0  302  501.00000  462.83143  7.62%     -    1s
     0     0  464.84889    0  299  501.00000  464.84889  7.22%     -    1s
     0     0  464.91711    0  300  501.00000  464.91711  7.20%     -    1s
     0     0  464.94377    0  302  501.00000  464.94377  7.20%     -    1s
     0     0  467.38859    0  310  501.00000  467.38859  6.71%     -    1s
     0     0  467.49661    0  307  501.00000  467.49661  6.69%     -    1s
     0     0  467.50451    0  306  501.00000  467.50451  6.69%     -    1s
     0     0  467.78943    0  310  501.00000  467.78943  6.63%     -    1s
     0     0  467.81570    0  308  501.00000  467.81570  6.62%     -    1s
     0     0  468.87261    0  310  501.00000  468.87261  6.41%     -    1s
     0     0  470.09588    0  312  501.00000  470.09588  6.17%     -    1s
     0     0  470.42323    0  310  501.00000  470.42323  6.10%     -    1s
     0     0  470.54751    0  308  501.00000  470.54751  6.08%     -    1s
     0     0  470.57575    0  311  501.00000  470.57575  6.07%     -    1s
     0     0  471.42543    0  309  501.00000  471.42543  5.90%     -    1s
     0     0  471.46199    0  309  501.00000  471.46199  5.90%     -    1s
     0     0  471.53666    0  311  501.00000  471.53666  5.88%     -    1s
     0     0  471.62900    0  261  501.00000  471.62900  5.86%     -    1s
     0     0  471.62900    0  282  501.00000  471.62900  5.86%     -    1s
     0     0  471.62900    0  280  501.00000  471.62900  5.86%     -    2s
     0     0  471.62900    0  281  501.00000  471.62900  5.86%     -    2s
     0     0  472.29065    0  288  501.00000  472.29065  5.73%     -    2s
     0     0  472.52256    0  288  501.00000  472.52256  5.68%     -    2s
     0     0  472.52901    0  289  501.00000  472.52901  5.68%     -    2s
     0     0  479.14780    0  277  501.00000  479.14780  4.36%     -    2s
     0     0  479.69779    0  273  501.00000  479.69779  4.25%     -    2s
     0     0  479.72313    0  267  501.00000  479.72313  4.25%     -    2s
     0     0  483.15654    0  280  501.00000  483.15654  3.56%     -    2s
     0     0  483.40774    0  271  501.00000  483.40774  3.51%     -    2s
     0     0  483.44515    0  281  501.00000  483.44515  3.50%     -    2s
     0     0  483.55593    0  276  501.00000  483.55593  3.48%     -    2s
     0     0  483.56843    0  278  501.00000  483.56843  3.48%     -    2s
     0     0  483.60797    0  273  501.00000  483.60797  3.47%     -    2s
     0     0  483.60797    0  272  501.00000  483.60797  3.47%     -    2s
     0     0  483.67780    0  218  501.00000  483.67780  3.46%     -    2s
     0     0  483.67780    0  227  501.00000  483.67780  3.46%     -    2s
     0     0  483.67780    0  233  501.00000  483.67780  3.46%     -    2s
     0     0  483.67780    0  229  501.00000  483.67780  3.46%     -    2s
     0     0  483.84650    0  235  501.00000  483.84650  3.42%     -    2s
     0     0  483.98404    0  242  501.00000  483.98404  3.40%     -    2s
     0     0  483.98818    0  241  501.00000  483.98818  3.40%     -    2s
     0     0  484.93268    0  244  501.00000  484.93268  3.21%     -    3s
     0     0  485.17962    0  242  501.00000  485.17962  3.16%     -    3s
     0     0  485.27394    0  243  501.00000  485.27394  3.14%     -    3s
     0     0  485.28150    0  244  501.00000  485.28150  3.14%     -    3s
     0     0  486.24503    0  246  501.00000  486.24503  2.95%     -    3s
     0     0  486.58343    0  247  501.00000  486.58343  2.88%     -    3s
     0     0  487.01352    0  248  501.00000  487.01352  2.79%     -    3s
     0     0  487.18506    0  246  501.00000  487.18506  2.76%     -    3s
     0     0  487.23665    0  244  501.00000  487.23665  2.75%     -    3s
     0     0  487.24073    0  248  501.00000  487.24073  2.75%     -    3s
     0     0  487.30654    0  250  501.00000  487.30654  2.73%     -    3s
     0     0  487.31682    0  249  501.00000  487.31682  2.73%     -    3s
     0     0  487.36096    0  248  501.00000  487.36096  2.72%     -    3s
     0     0  487.36096    0  247  501.00000  487.36096  2.72%     -    3s
     0     2  487.38618    0  247  501.00000  487.38618  2.72%     -    3s

Cutting planes:
  Gomory: 2
  Clique: 4
  MIR: 9
  GUB cover: 1
  Zero half: 18
  RLT: 115

Explored 17 nodes (9866 simplex iterations) in 3.66 seconds
Thread count was 1 (of 40 available processors)

Solution count 1: 501 

Optimal solution found (tolerance 1.00e-04)
Best objective 5.010000000000e+02, best bound 5.010000000000e+02, gap 0.0000%

User-callback calls 1147, time in user-callback 0.00 sec
